(declare-const x String)
(declare-const y String)
(assert (str.in.re x (re.* (re.++ (re.* (str.to.re "#")) (str.to.re ">")))))
(assert (= (str.len x) 3))
(assert (not (= x "#>>")))
(assert (not (= x ">#>")))
(assert (not (= x "##>")))
(check-sat)
(get-model)
